rehearsal = [[1,0,1,0,1,1,1,1,1,1], [1,0,1,0,0,0,0,0,0,1], [1,0,1,0,0,1,0,1,0,1], [1,1,0,1,0,1,0,1,1,1], [0,0,0,1,1,1,0,1,1,1], [0,1,1,0,1,0,0,1,0,1], [0,1,1,1,0,0,1,0,0,1], [1,0,0,1,1,1,1,0,0,1], [1,1,0,1,0,0,0,1,1,1], [1,0,0,0,0,1,1,1,0,0]];
permutations = [2,4,9,5,10,3,1,8,6,7];